Route #1: 1 28 2 33 1 
Route #2: 1 6 11 10 30 3 4 29 27 1 
Route #3: 1 9 27 32 27 24 27 8 27 1 
Route #4: 1 13 38 18 5 20 5 19 1 
Route #5: 1 17 30 22 35 31 11 34 11 1 
Route #6: 1 21 36 37 4 23 30 12 1 
Route #7: 1 7 15 26 25 26 14 5 1 
Route #8: 1 11 40 11 16 11 39 1 
Cost 822.0
